NAME : portgen-30-100
COMMENT : portgen N=30, seed=100
TYPE : TSP
DIMENSION : 30
EDGE_WEIGHT_TYPE : EUC_2D
NODE_COORD_SECTION
1 1758 1305
2 2867 1731
3 1895 395
4 2510 1415
5 1263 201
6 2326 1562
7 500 2116
8 1982 1761
9 2595 2656
10 2586 1566
11 952 1099
12 1391 1970
13 174 20
14 3038 1307
15 518 995
16 352 201
17 239 2717
18 1893 50
19 3039 2157
20 3036 1181
21 2226 2525
22 2958 1611
23 1492 3010
24 765 2948
25 1153 1751
26 1290 1114
27 2379 1111
28 2990 1556
29 1065 149
30 3001 1844
